width,height
10,25
8,3
9,5
9,1
2,4
10,3
3,5
2,4
8,3
5,5
4,1
3,1
4,5
5,2
3,2
8,1
3,5
1,3
2,1
9,3
1,2
1,5
7,5
6,5
10,5
5,2
2,1
6,5
3,3
3,3
5,1
1,1
4,1
7,3
9,5
6,5
1,2
10,3
4,1
6,5
8,1
10,5
6,4
9,1
4,1
4,2
7,4
7,2
5,3
3,2
4,2
5,2
8,1
1,1
9,4
10,2
6,1
10,2
8,1
2,3
9,1
10,2
5,1
10,1
5,3
10,2
4,2
9,4
6,1
10,3
3,1
10,5
10,4
6,5
2,2
8,3
2,3
2,4
4,2
9,1
9,2
8,5
3,1
6,2
4,3
4,5
10,4
8,1
1,4
7,2
10,5
8,2
8,3
9,2
3,3
6,3
5,1
4,3
8,3
5,1
5,1
